webassembly/ejemplos_dzn/folder13_json_9.dzn
TERM = { '.', 's(5)', 's(2)', 's(4)', 'in_1', 's(9)', 'local_0', 'local_1', 'in_2', 'in_3', 'in_4', 's(10)', 's(8)', 's(6)', 's(1)', 's(0)', 's(7)', 's(3)', 'in_0'};
null = '.';
s = 13;
n = 10;
ndeps = 8;
max_registers_sz = 5;
NR = 2;
registers = [|'local_0', 's(0)', |'local_1', 'in_0'|];
dependencies = [|'i32.load16_u_2', 'call[function_index(0)]_4', |'call[function_index(0)]_4', 'call[function_index(1)]_5', |'call[function_index(1)]_5', 'i32.store8_6', |'i32.store8_6', 'i32.load16_s_7', |'call[function_index(1)]_8', 'i32.load16_u_9', |'i32.store8_10', 'i32.load_12', |'i32.load16_s_7', 'call[function_index(1)]_8', |'i32.load16_u_9', 'i32.store8_10'|];
GET_ENUM = { GET1, GET2, GET3, GET4, GET5, GET6, GET7};
SET_ENUM = { SET1, SET2, SET3, SET4, SET5, SET6, SET7};
TEE_ENUM = { TEE1, TEE2, TEE3, TEE4, TEE5, TEE6, TEE7};
N = 10;
OP = { 'call[function_index(0)]_4', 'call[function_index(1)]_5', 'call[function_index(1)]_8', 'i32.load16_u_2', 'i32.store8_6', 'i32.load16_s_7', 'i32.load16_u_9', 'i32.store8_10', 'i32.sub_0', 'i32.load_12' };
in_ops = [3, 0, 0, 1, 2, 1, 1, 2, 2, 1 ];
out_ops = [0, 3, 3, 1, 0, 1, 1, 0, 1, 1 ];
in1 = ['in_2', '.', '.', 'in_1', 's(3)', 's(1)', 's(7)', 's(8)', 's(5)', 's(9)' ];
in2 = ['in_3', '.', '.', '.', 's(2)', '.', '.', 's(6)', 's(4)', '.' ];
in3 = ['in_4', '.', '.', '.', '.', '.', '.', '.', '.', '.' ];
out1 = ['.', 's(3)', 's(7)', 's(0)', '.', 's(4)', 's(8)', '.', 's(9)', 's(10)' ];
out2 = ['.', 's(2)', 's(6)', '.', '.', '.', '.', '.', '.', '.' ];
out3 = ['.', 's(1)', 's(5)', '.', '.', '.', '.', '.', '.', '.' ];
comm = [false, false, false, false, false, false, false, false, false, false ];
gas = [1, 1, 1, 1, 1, 1, 1, 1, 1, 1 ];
sz = [1, 1, 1, 1, 1, 1, 1, 1, 1, 1 ];
stor = [true, true, true, false, true, false, false, true, false, false ];
lb = [ 1, 1, 1, 1, 1, 1, 1, 1, 1, 1 ];
ub = [ 13, 13, 13, 13, 13, 13, 13, 13, 13, 13 ];
startstack = [ 'in_0', 'in_1', 'in_2', 'in_3', 'in_4', null, null, null, null, null ];
endstack = [ 's(10)', null, null, null, null, null, null, null, null, null ];
